pair_coeff 1 1 -0.141964 5.04 15.12 0.0
pair_coeff 1 2 -0.256888 5.26 15.78 0.0
pair_coeff 1 3 -0.004056 5.31 15.93 0.0
pair_coeff 1 4 0.021633 5.48 16.44 0.0
pair_coeff 1 5 -0.424541 5.7 17.1 0.0
pair_coeff 1 6 -0.086531 4.77 14.31 0.0
pair_coeff 1 7 -0.100051 5.56 16.68 0.0
pair_coeff 1 8 -0.393444 5.61 16.83 0.0
pair_coeff 1 9 0.048673 5.7 17.1 0.0
pair_coeff 1 10 -0.438061 5.61 16.83 0.0
pair_coeff 1 11 -0.306913 5.61 16.83 0.0
pair_coeff 1 12 -0.022985 5.36 16.08 0.0
pair_coeff 1 13 -0.048673 5.3 15.9 0.0
pair_coeff 1 14 -0.029745 5.53 16.59 0.0
pair_coeff 1 15 -0.021633 5.8 17.4 0.0
pair_coeff 1 16 -0.045969 5.11 15.33 0.0
pair_coeff 1 17 -0.087883 5.33 15.99 0.0
pair_coeff 1 18 -0.320433 5.45 16.35 0.0
pair_coeff 1 19 -0.290689 5.91 17.73 0.0
pair_coeff 1 20 -0.228495 5.75 17.25 0.0
pair_coeff 1 21 -0.004056 5.7 17.1 0.0
pair_coeff 1 22 -0.004056 5.83 17.49 0.0
pair_coeff 1 23 -0.004056 6.21 18.63 0.0
pair_coeff 2 2 -0.509719 5.48 16.44 0.0
pair_coeff 2 3 -0.100051 5.53 16.59 0.0
pair_coeff 2 4 -0.081122 5.7 17.1 0.0
pair_coeff 2 5 -0.558393 5.92 17.76 0.0
pair_coeff 2 6 -0.201454 4.99 14.97 0.0
pair_coeff 2 7 -0.260944 5.78 17.34 0.0
pair_coeff 2 8 -0.517831 5.83 17.49 0.0
pair_coeff 2 9 -0.037857 5.92 17.76 0.0
pair_coeff 2 10 -0.562449 5.83 17.49 0.0
pair_coeff 2 11 -0.448877 5.83 17.49 0.0
pair_coeff 2 12 -0.124388 5.58 16.74 0.0
pair_coeff 2 13 -0.189286 5.52 16.56 0.0
pair_coeff 2 14 -0.159541 5.75 17.25 0.0
pair_coeff 2 15 -0.121684 6.02 18.06 0.0
pair_coeff 2 16 -0.160893 5.33 15.99 0.0
pair_coeff 2 17 -0.194694 5.55 16.65 0.0
pair_coeff 2 18 -0.444821 5.67 17.01 0.0
pair_coeff 2 19 -0.443469 6.13 18.39 0.0
pair_coeff 2 20 -0.336658 5.97 17.91 0.0
pair_coeff 2 21 -0.100051 5.92 17.76 0.0
pair_coeff 2 22 -0.100051 6.05 18.15 0.0
pair_coeff 2 23 -0.100051 6.43 19.29 0.0
pair_coeff 3 3 0.062194 5.58 16.74 35.0
pair_coeff 3 4 0.087883 5.75 17.25 35.0
pair_coeff 3 5 -0.244719 5.97 17.91 0.0
pair_coeff 3 6 0.010816 5.04 15.12 0.0
pair_coeff 3 7 -0.087883 5.83 17.49 35.0
pair_coeff 3 8 -0.202806 5.88 17.64 0.0
pair_coeff 3 9 -0.001352 5.97 17.91 35.0
pair_coeff 3 10 -0.233903 5.88 17.64 0.0
pair_coeff 3 11 -0.121684 5.88 17.64 0.0
pair_coeff 3 12 -0.001352 5.63 16.89 0.0
pair_coeff 3 13 0.045969 5.57 16.71 0.0
pair_coeff 3 14 0.028393 5.8 17.4 0.0
pair_coeff 3 15 -0.083826 6.07 18.21 35.0
pair_coeff 3 16 0.005408 5.38 16.14 0.0
pair_coeff 3 17 -0.017577 5.6 16.8 0.0
pair_coeff 3 18 -0.109515 5.72 17.16 0.0
pair_coeff 3 19 -0.158189 6.18 18.54 0.0
pair_coeff 3 20 -0.147372 6.02 18.06 0.0
pair_coeff 3 21 0.062194 5.97 17.91 35.0
pair_coeff 3 22 0.062194 6.1 18.3 35.0
pair_coeff 3 23 0.062194 6.48 19.44 35.0
pair_coeff 4 4 0.102755 5.92 17.76 35.0
pair_coeff 4 5 -0.255536 6.14 18.42 0.0
pair_coeff 4 6 0.060842 5.21 15.63 0.0
pair_coeff 4 7 -0.064898 6.0 18.0 35.0
pair_coeff 4 8 -0.216326 6.05 18.15 0.0
pair_coeff 4 9 -0.017577 6.14 18.42 35.0
pair_coeff 4 10 -0.259592 6.05 18.15 0.0
pair_coeff 4 11 -0.164949 6.05 18.15 0.0
pair_coeff 4 12 0.021633 5.8 17.4 0.0
pair_coeff 4 13 0.055434 5.74 17.22 0.0
pair_coeff 4 14 0.033801 5.97 17.91 0.0
pair_coeff 4 15 -0.081122 6.24 18.72 35.0
pair_coeff 4 16 0.025689 5.55 16.65 0.0
pair_coeff 4 17 -0.009464 5.77 17.31 0.0
pair_coeff 4 18 -0.135204 5.89 17.67 0.0
pair_coeff 4 19 -0.178469 6.35 19.05 0.0
pair_coeff 4 20 -0.151428 6.19 18.57 0.0
pair_coeff 4 21 0.087883 6.14 18.42 35.0
pair_coeff 4 22 0.087883 6.27 18.81 35.0
pair_coeff 4 23 0.087883 6.65 19.95 35.0
pair_coeff 5 5 -0.75579 6.36 19.08 0.0
pair_coeff 5 6 -0.332602 5.43 16.29 0.0
pair_coeff 5 7 -0.419132 6.22 18.66 0.0
pair_coeff 5 8 -0.699005 6.27 18.81 0.0
pair_coeff 5 9 -0.228495 6.36 19.08 0.0
pair_coeff 5 10 -0.758494 6.27 18.81 0.0
pair_coeff 5 11 -0.661148 6.27 18.81 0.0
pair_coeff 5 12 -0.281224 6.02 18.06 0.0
pair_coeff 5 13 -0.348826 5.96 17.88 0.0
pair_coeff 5 14 -0.328546 6.19 18.57 0.0
pair_coeff 5 15 -0.312321 6.46 19.38 0.0
pair_coeff 5 16 -0.317729 5.77 17.31 0.0
pair_coeff 5 17 -0.352882 5.99 17.97 0.0
pair_coeff 5 18 -0.624642 6.11 18.33 0.0
pair_coeff 5 19 -0.607066 6.57 19.71 0.0
pair_coeff 5 20 -0.539464 6.41 19.23 0.0
pair_coeff 5 21 -0.244719 6.36 19.08 0.0
pair_coeff 5 22 -0.244719 6.49 19.47 0.0
pair_coeff 5 23 -0.244719 6.87 20.61 0.0
pair_coeff 6 6 -0.077066 4.5 13.5 0.0
pair_coeff 6 7 -0.064898 5.29 15.87 0.0
pair_coeff 6 8 -0.28528 5.34 16.02 0.0
pair_coeff 6 9 0.070306 5.43 16.29 0.0
pair_coeff 6 10 -0.336658 5.34 16.02 0.0
pair_coeff 6 11 -0.232551 5.34 16.02 0.0
pair_coeff 6 12 -0.009464 5.09 15.27 0.0
pair_coeff 6 13 -0.027041 5.03 15.09 0.0
pair_coeff 6 14 0.001352 5.26 15.78 0.0
pair_coeff 6 15 -0.00676 5.53 16.59 0.0
pair_coeff 6 16 -0.020281 4.84 14.52 0.0
pair_coeff 6 17 -0.055434 5.06 15.18 0.0
pair_coeff 6 18 -0.231199 5.18 15.54 0.0
pair_coeff 6 19 -0.236607 5.64 16.92 0.0
pair_coeff 6 20 -0.181173 5.48 16.44 0.0
pair_coeff 6 21 0.010816 5.43 16.29 0.0
pair_coeff 6 22 0.010816 5.56 16.68 0.0
pair_coeff 6 23 0.010816 5.94 17.82 0.0
pair_coeff 7 7 -0.186582 6.08 18.24 35.0
pair_coeff 7 8 -0.333954 6.13 18.39 0.0
pair_coeff 7 9 0.043265 6.22 18.66 35.0
pair_coeff 7 10 -0.388035 6.13 18.39 0.0
pair_coeff 7 11 -0.312321 6.13 18.39 0.0
pair_coeff 7 12 -0.055434 5.88 17.64 0.0
pair_coeff 7 13 -0.078418 5.82 17.46 0.0
pair_coeff 7 14 -0.041913 6.05 18.15 0.0
pair_coeff 7 15 -0.06625 6.32 18.96 35.0
pair_coeff 7 16 -0.05949 5.63 16.89 0.0
pair_coeff 7 17 -0.101403 5.85 17.55 0.0
pair_coeff 7 18 -0.25824 5.97 17.91 0.0
pair_coeff 7 19 -0.312321 6.43 19.29 0.0
pair_coeff 7 20 -0.250127 6.27 18.81 0.0
pair_coeff 7 21 -0.087883 6.22 18.66 35.0
pair_coeff 7 22 -0.087883 6.35 19.05 35.0
pair_coeff 7 23 -0.087883 6.73 20.19 35.0
pair_coeff 8 8 -0.658443 6.18 18.54 0.0
pair_coeff 8 9 -0.181173 6.27 18.81 0.0
pair_coeff 8 10 -0.726045 6.18 18.54 0.0
pair_coeff 8 11 -0.588137 6.18 18.54 0.0
pair_coeff 8 12 -0.21227 5.93 17.79 0.0
pair_coeff 8 13 -0.282576 5.87 17.61 0.0
pair_coeff 8 14 -0.270408 6.1 18.3 0.0
pair_coeff 8 15 -0.265 6.37 19.11 0.0
pair_coeff 8 16 -0.250127 5.68 17.04 0.0
pair_coeff 8 17 -0.319081 5.9 17.7 0.0
pair_coeff 8 18 -0.592194 6.02 18.06 0.0
pair_coeff 8 19 -0.555688 6.48 19.44 0.0
pair_coeff 8 20 -0.48403 6.32 18.96 0.0
pair_coeff 8 21 -0.202806 6.27 18.81 0.0
pair_coeff 8 22 -0.202806 6.4 19.2 0.0
pair_coeff 8 23 -0.202806 6.78 20.34 0.0
pair_coeff 9 9 0.209566 6.36 19.08 35.0
pair_coeff 9 10 -0.229847 6.27 18.81 0.0
pair_coeff 9 11 -0.109515 6.27 18.81 0.0
pair_coeff 9 12 0.062194 6.02 18.06 0.0
pair_coeff 9 13 0.094643 5.96 17.88 0.0
pair_coeff 9 14 0.051378 6.19 18.57 0.0
pair_coeff 9 15 0.14602 6.46 19.38 35.0
pair_coeff 9 16 0.083826 5.77 17.31 0.0
pair_coeff 9 17 0.048673 5.99 17.97 0.0
pair_coeff 9 18 -0.110867 6.11 18.33 0.0
pair_coeff 9 19 -0.137908 6.57 19.71 0.0
pair_coeff 9 20 -0.12574 6.41 19.23 0.0
pair_coeff 9 21 -0.001352 6.36 19.08 35.0
pair_coeff 9 22 -0.001352 6.49 19.47 35.0
pair_coeff 9 23 -0.001352 6.87 20.61 35.0
pair_coeff 10 10 -0.770663 6.18 18.54 0.0
pair_coeff 10 11 -0.640867 6.18 18.54 0.0
pair_coeff 10 12 -0.279872 5.93 17.79 0.0
pair_coeff 10 13 -0.342066 5.87 17.61 0.0
pair_coeff 10 14 -0.320433 6.1 18.3 0.0
pair_coeff 10 15 -0.319081 6.37 19.11 0.0
pair_coeff 10 16 -0.304209 5.68 17.04 0.0
pair_coeff 10 17 -0.360995 5.9 17.7 0.0
pair_coeff 10 18 -0.650331 6.02 18.06 0.0
pair_coeff 10 19 -0.604362 6.48 19.44 0.0
pair_coeff 10 20 -0.540816 6.32 18.96 0.0
pair_coeff 10 21 -0.233903 6.27 18.81 0.0
pair_coeff 10 22 -0.233903 6.4 19.2 0.0
pair_coeff 10 23 -0.233903 6.78 20.34 0.0
pair_coeff 11 11 -0.512423 6.18 18.54 0.0
pair_coeff 11 12 -0.173061 5.93 17.79 0.0
pair_coeff 11 13 -0.240663 5.87 17.61 0.0
pair_coeff 11 14 -0.220383 6.1 18.3 0.0
pair_coeff 11 15 -0.196046 6.37 19.11 0.0
pair_coeff 11 16 -0.183877 5.68 17.04 0.0
pair_coeff 11 17 -0.248775 5.9 17.7 0.0
pair_coeff 11 18 -0.493495 6.02 18.06 0.0
pair_coeff 11 19 -0.524592 6.48 19.44 0.0
pair_coeff 11 20 -0.438061 6.32 18.96 0.0
pair_coeff 11 21 -0.121684 6.27 18.81 0.0
pair_coeff 11 22 -0.121684 6.4 19.2 0.0
pair_coeff 11 23 -0.121684 6.78 20.34 0.0
pair_coeff 12 12 -0.001352 5.68 17.04 0.0
pair_coeff 12 13 0.018929 5.62 16.86 0.0
pair_coeff 12 14 -0.005408 5.85 17.55 0.0
pair_coeff 12 15 0.004056 6.12 18.36 0.0
pair_coeff 12 16 0.012168 5.43 16.29 0.0
pair_coeff 12 17 -0.028393 5.65 16.95 0.0
pair_coeff 12 18 -0.156837 5.77 17.31 0.0
pair_coeff 12 19 -0.189286 6.23 18.69 0.0
pair_coeff 12 20 -0.147372 6.07 18.21 0.0
pair_coeff 12 21 -0.001352 6.02 18.06 0.0
pair_coeff 12 22 -0.001352 6.15 18.45 0.0
pair_coeff 12 23 -0.001352 6.53 19.59 0.0
pair_coeff 13 13 -0.010816 5.56 16.68 0.0
pair_coeff 13 14 -0.008112 5.79 17.37 0.0
pair_coeff 13 15 -0.004056 6.06 18.18 0.0
pair_coeff 13 16 0.01352 5.37 16.11 0.0
pair_coeff 13 17 -0.031097 5.59 16.77 0.0
pair_coeff 13 18 -0.223087 5.71 17.13 0.0
pair_coeff 13 19 -0.27852 6.17 18.51 0.0
pair_coeff 13 20 -0.20551 6.01 18.03 0.0
pair_coeff 13 21 0.045969 5.96 17.88 0.0
pair_coeff 13 22 0.045969 6.09 18.27 0.0
pair_coeff 13 23 0.045969 6.47 19.41 0.0
pair_coeff 14 14 0.017577 6.02 18.06 0.0
pair_coeff 14 15 -0.017577 6.29 18.87 0.0
pair_coeff 14 16 0.024337 5.6 16.8 0.0
pair_coeff 14 17 -0.031097 5.82 17.46 0.0
pair_coeff 14 18 -0.189286 5.94 17.82 0.0
pair_coeff 14 19 -0.194694 6.4 19.2 0.0
pair_coeff 14 20 -0.175765 6.24 18.72 0.0
pair_coeff 14 21 0.028393 6.19 18.57 0.0
pair_coeff 14 22 0.028393 6.32 18.96 0.0
pair_coeff 14 23 0.028393 6.7 20.1 0.0
pair_coeff 15 15 0.016224 6.56 19.68 35.0
pair_coeff 15 16 0.00676 5.87 17.61 0.0
pair_coeff 15 17 -0.031097 6.09 18.27 0.0
pair_coeff 15 18 -0.189286 6.21 18.63 0.0
pair_coeff 15 19 -0.235255 6.67 20.01 0.0
pair_coeff 15 20 -0.201454 6.51 19.53 0.0
pair_coeff 15 21 -0.083826 6.46 19.38 35.0
pair_coeff 15 22 -0.083826 6.59 19.77 35.0
pair_coeff 15 23 -0.083826 6.97 20.91 35.0
pair_coeff 16 16 0.0001 5.18 15.54 0.0
pair_coeff 16 17 -0.039209 5.4 16.2 0.0
pair_coeff 16 18 -0.186582 5.52 16.56 0.0
pair_coeff 16 19 -0.178469 5.98 17.94 0.0
pair_coeff 16 20 -0.150076 5.82 17.46 0.0
pair_coeff 16 21 0.005408 5.77 17.31 0.0
pair_coeff 16 22 0.005408 5.9 17.7 0.0
pair_coeff 16 23 0.005408 6.28 18.84 0.0
pair_coeff 17 17 -0.060842 5.62 16.86 0.0
pair_coeff 17 18 -0.242015 5.74 17.22 0.0
pair_coeff 17 19 -0.209566 6.2 18.6 0.0
pair_coeff 17 20 -0.181173 6.04 18.12 0.0
pair_coeff 17 21 -0.017577 5.99 17.97 0.0
pair_coeff 17 22 -0.017577 6.12 18.36 0.0
pair_coeff 17 23 -0.017577 6.5 19.5 0.0
pair_coeff 18 18 -0.520535 5.86 17.58 0.0
pair_coeff 18 19 -0.474566 6.32 18.96 0.0
pair_coeff 18 20 -0.398852 6.16 18.48 0.0
pair_coeff 18 21 -0.109515 6.11 18.33 0.0
pair_coeff 18 22 -0.109515 6.24 18.72 0.0
pair_coeff 18 23 -0.109515 6.62 19.86 0.0
pair_coeff 19 19 -0.458342 6.78 20.34 0.0
pair_coeff 19 20 -0.40426 6.62 19.86 0.0
pair_coeff 19 21 -0.158189 6.57 19.71 0.0
pair_coeff 19 22 -0.158189 6.7 20.1 0.0
pair_coeff 19 23 -0.158189 7.08 21.24 0.0
pair_coeff 20 20 -0.33801 6.46 19.38 0.0
pair_coeff 20 21 -0.147372 6.41 19.23 0.0
pair_coeff 20 22 -0.147372 6.54 19.62 0.0
pair_coeff 20 23 -0.147372 6.92 20.76 0.0
pair_coeff 21 21 0.062194 6.36 19.08 35.0
pair_coeff 21 22 0.062194 6.49 19.47 35.0
pair_coeff 21 23 0.062194 6.87 20.61 35.0
pair_coeff 22 22 0.062194 6.62 19.86 35.0
pair_coeff 22 23 0.062194 7.0 21.0 35.0
pair_coeff 23 23 0.062194 7.38 22.14 35.0
